certificates/rado_a9_c7_N33.drat
1 -32 4 0
-1 -33 0
1 4 0
d 30 1 4 0
-33 0
4 0
1 0
-3 0
-30 0
-6 0
-2 0
23 0
13 0
10 0
17 0
26 0
22 0
14 0
19 0
-25 0
-21 0
-15 0
-11 0
-12 0
-8 0
0
